  100  21090402
 62  36  61  74  49  21  39  34  86  38
  5  89  88  95  97  40  47  20  15  42
 60  26 100  64  93  55  85  77  98  67
 19  44  18  65  41  81  79  82   8  33
 83  56  23  46  92   2  78  16  25  28
 59  35  14  24  69  37  30  29  99   7
 90  58  72  91  57  75  94  80   9  17
 10  63  52   3  68  87  43  22  53   4
 48  45  96  73  50  12   6  51  32  71
 31  70  54  76  27  11  66   1  84  13

